
Gurobi 11.0.0 (win64) logging started Sat Jun 15 10:04:34 2024

Set parameter LogFile to value "./GurobiLog/stage_1_iter_18.log"
Gurobi Optimizer version 11.0.0 build v11.0.0rc2 (win64 - Windows 10.0 (18363.2))

CPU model: Intel(R) Core(TM) i7-8700 CPU @ 3.20GHz, instruction set [SSE2|AVX|AVX2]
Thread count: 6 physical cores, 12 logical processors, using up to 1 threads

Optimize a model with 1499 rows, 20468 columns and 109901 nonzeros
Coefficient statistics:
  Matrix range     [6e-04, 7e+03]
  Objective range  [1e-01, 2e+05]
  Bounds range     [2e-01, 1e+06]
  RHS range        [1e+00, 4e+04]
LP warm-start: use basis
Iteration    Objective       Primal Inf.    Dual Inf.      Time
       0    5.9141421e+04   1.314506e+03   0.000000e+00      0s
      58    6.0320079e+04   0.000000e+00   0.000000e+00      0s

Solved in 58 iterations and 0.02 seconds (0.01 work units)
Optimal objective  6.032007912e+04
